--- Job Tubes.gms Start 04/09/24 16:29:04 46.3.0 cc87b1db WEX-WEI x86 64bit/MS Windows
--- Applying:
    D:\Apps\Gams\gmsprmNT.txt
--- GAMS Parameters defined
    Input "D:\Biblioteca\Escritorio\Universidad\MOS\Lab 3\Tubes.gms"
    PageSize 0
    ScrDir "D:\Biblioteca\Escritorio\Universidad\MOS\Lab 3\225a\"
    SysDir D:\Apps\Gams\
    LogOption 3
    ErrMsg 1
    ErrorLog 99
    IDE 1
    LstTitleLeftAligned 1
Licensee: GAMS Community License for Sebastian Murcia    G240125|0002AO-GEN
          Universidad de los Andes, Computer and Systems Engineering CL9328
          D:\Biblioteca\Documents\GAMS\gamslice.txt
          Sebastian Murcia, s.murciag@uniandes.edu.co                      
          Community license for demonstration and instructional purposes only
Processor information: 1 socket(s), 4 core(s), and 8 thread(s) available
GAMS 46.3.0   Copyright (C) 1987-2024 GAMS Development. All rights reserved
--- Starting compilation
--- Tubes.gms(30) 3 Mb
--- Starting execution: elapsed 0:00:00.011
--- Tubes.gms(26) 4 Mb
--- Generating MIP model model1
--- Tubes.gms(27) 4 Mb
---   8 rows  21 columns  44 non-zeroes
---   20 discrete-columns
--- Range statistics (absolute non-zero finite values)
--- RHS       [min, max] : [ 1.000E+00, 1.000E+00] - Zero values observed as well
--- Bound     [min, max] : [ 1.000E+00, 1.000E+00] - Zero values observed as well
--- Matrix    [min, max] : [ 1.000E+00, 1.000E+00]
--- Executing CPLEX (Solvelink=2): elapsed 0:00:00.016

IBM ILOG CPLEX   46.3.0 cc87b1db Mar 19, 2024          WEI x86 64bit/MS Window

*** This solver runs with a community license. No commercial use.
--- GMO setup time: 0.00s
--- GMO memory 0.50 Mb (peak 0.50 Mb)
--- Dictionary memory 0.00 Mb
--- Cplex 22.1.1.0 link memory 0.00 Mb (peak 0.00 Mb)
--- Starting Cplex

Version identifier: 22.1.1.0 | 2022-11-27 | 9160aff4d
CPXPARAM_Advance                                 0
CPXPARAM_Simplex_Display                         2
CPXPARAM_MIP_Display                             4
CPXPARAM_MIP_Pool_Capacity                       0
CPXPARAM_MIP_Tolerances_AbsMIPGap                0
Generic callback                                 0x50
Found incumbent of value 20.000000 after 0.00 sec. (0.00 ticks)
Tried aggregator 1 time.
MIP Presolve eliminated 7 rows and 20 columns.
All rows and columns eliminated.
Presolve time = 0.03 sec. (0.02 ticks)

Root node processing (before b&c):
  Real time             =    0.03 sec. (0.02 ticks)
Parallel b&c, 8 threads:
  Real time             =    0.00 sec. (0.00 ticks)
  Sync time (average)   =    0.00 sec.
  Wait time (average)   =    0.00 sec.
                          ------------
Total (root+branch&cut) =    0.03 sec. (0.02 ticks)

--- MIP status (101): integer optimal solution.
--- Cplex Time: 0.03sec (det. 0.02 ticks)

--- Returning a primal only solution to GAMS (marginals all set to NA).
--- Fixing integer variables and solving final LP...

Version identifier: 22.1.1.0 | 2022-11-27 | 9160aff4d
CPXPARAM_Advance                                 2
CPXPARAM_Simplex_Display                         2
CPXPARAM_MIP_Display                             4
CPXPARAM_MIP_Pool_Capacity                       0
CPXPARAM_MIP_Tolerances_AbsMIPGap                0
Tried aggregator 1 time.
LP Presolve eliminated 7 rows and 21 columns.
All rows and columns eliminated.
Presolve time = 0.00 sec. (0.00 ticks)

--- Fixed MIP status (1): optimal.
--- Cplex Time: 0.00sec (det. 0.01 ticks)


Proven optimal solution
MIP Solution:            5.000000    (0 iterations, 0 nodes)
Final Solve:             5.000000    (0 iterations)

Best possible:           5.000000
Absolute gap:            0.000000
Relative gap:            0.000000

--- Reading solution for model model1
--- Executing after solve: elapsed 0:00:00.141
--- Tubes.gms(30) 4 Mb
*** Status: Normal completion
--- Job Tubes.gms Stop 04/09/24 16:29:04 elapsed 0:00:00.141
